c description: Tseitin formula on Random 4-regular graph of 40 vertices, with odd charge
c generator: CNFgen (0.9.2)
c copyright: (C) 2012-2022 Massimo Lauria <massimo.lauria@uniroma1.it>
c url: https://massimolauria.net/cnfgen
c command line: cnfgen tseitin 40
c
p cnf 80 320
1 2 3 4 0
1 2 -3 -4 0
1 -2 3 -4 0
1 -2 -3 4 0
-1 2 3 -4 0
-1 2 -3 4 0
-1 -2 3 4 0
-1 -2 -3 -4 0
5 6 7 8 0
5 6 -7 -8 0
5 -6 7 -8 0
5 -6 -7 8 0
-5 6 7 -8 0
-5 6 -7 8 0
-5 -6 7 8 0
-5 -6 -7 -8 0
9 10 11 -12 0
9 10 -11 12 0
9 -10 11 12 0
9 -10 -11 -12 0
-9 10 11 12 0
-9 10 -11 -12 0
-9 -10 11 -12 0
-9 -10 -11 12 0
1 13 14 -15 0
1 13 -14 15 0
1 -13 14 15 0
1 -13 -14 -15 0
-1 13 14 15 0
-1 13 -14 -15 0
-1 -13 14 -15 0
-1 -13 -14 15 0
16 17 18 -19 0
16 17 -18 19 0
16 -17 18 19 0
16 -17 -18 -19 0
-16 17 18 19 0
-16 17 -18 -19 0
-16 -17 18 -19 0
-16 -17 -18 19 0
16 20 21 -22 0
16 20 -21 22 0
16 -20 21 22 0
16 -20 -21 -22 0
-16 20 21 22 0
-16 20 -21 -22 0
-16 -20 21 -22 0
-16 -20 -21 22 0
23 24 25 26 0
23 24 -25 -26 0
23 -24 25 -26 0
23 -24 -25 26 0
-23 24 25 -26 0
-23 24 -25 26 0
-23 -24 25 26 0
-23 -24 -25 -26 0
27 28 29 -30 0
27 28 -29 30 0
27 -28 29 30 0
27 -28 -29 -30 0
-27 28 29 30 0
-27 28 -29 -30 0
-27 -28 29 -30 0
-27 -28 -29 30 0
5 31 32 -33 0
5 31 -32 33 0
5 -31 32 33 0
5 -31 -32 -33 0
-5 31 32 33 0
-5 31 -32 -33 0
-5 -31 32 -33 0
-5 -31 -32 33 0
34 35 36 -37 0
34 35 -36 37 0
34 -35 36 37 0
34 -35 -36 -37 0
-34 35 36 37 0
-34 35 -36 -37 0
-34 -35 36 -37 0
-34 -35 -36 37 0
20 38 39 40 0
20 38 -39 -40 0
20 -38 39 -40 0
20 -38 -39 40 0
-20 38 39 -40 0
-20 38 -39 40 0
-20 -38 39 40 0
-20 -38 -39 -40 0
17 38 41 -42 0
17 38 -41 42 0
17 -38 41 42 0
17 -38 -41 -42 0
-17 38 41 42 0
-17 38 -41 -42 0
-17 -38 41 -42 0
-17 -38 -41 42 0
43 44 45 46 0
43 44 -45 -46 0
43 -44 45 -46 0
43 -44 -45 46 0
-43 44 45 -46 0
-43 44 -45 46 0
-43 -44 45 46 0
-43 -44 -45 -46 0
39 47 48 49 0
39 47 -48 -49 0
39 -47 48 -49 0
39 -47 -48 49 0
-39 47 48 -49 0
-39 47 -48 49 0
-39 -47 48 49 0
-39 -47 -48 -49 0
21 50 51 -52 0
21 50 -51 52 0
21 -50 51 52 0
21 -50 -51 -52 0
-21 50 51 52 0
-21 50 -51 -52 0
-21 -50 51 -52 0
-21 -50 -51 52 0
43 53 54 55 0
43 53 -54 -55 0
43 -53 54 -55 0
43 -53 -54 55 0
-43 53 54 -55 0
-43 53 -54 55 0
-43 -53 54 55 0
-43 -53 -54 -55 0
9 23 56 -57 0
9 23 -56 57 0
9 -23 56 57 0
9 -23 -56 -57 0
-9 23 56 57 0
-9 23 -56 -57 0
-9 -23 56 -57 0
-9 -23 -56 57 0
10 53 58 59 0
10 53 -58 -59 0
10 -53 58 -59 0
10 -53 -58 59 0
-10 53 58 -59 0
-10 53 -58 59 0
-10 -53 58 59 0
-10 -53 -58 -59 0
2 60 61 62 0
2 60 -61 -62 0
2 -60 61 -62 0
2 -60 -61 62 0
-2 60 61 -62 0
-2 60 -61 62 0
-2 -60 61 62 0
-2 -60 -61 -62 0
34 44 63 -64 0
34 44 -63 64 0
34 -44 63 64 0
34 -44 -63 -64 0
-34 44 63 64 0
-34 44 -63 -64 0
-34 -44 63 -64 0
-34 -44 -63 64 0
27 45 65 -66 0
27 45 -65 66 0
27 -45 65 66 0
27 -45 -65 -66 0
-27 45 65 66 0
-27 45 -65 -66 0
-27 -45 65 -66 0
-27 -45 -65 66 0
41 54 60 67 0
41 54 -60 -67 0
41 -54 60 -67 0
41 -54 -60 67 0
-41 54 60 -67 0
-41 54 -60 67 0
-41 -54 60 67 0
-41 -54 -60 -67 0
63 68 69 70 0
63 68 -69 -70 0
63 -68 69 -70 0
63 -68 -69 70 0
-63 68 69 -70 0
-63 68 -69 70 0
-63 -68 69 70 0
-63 -68 -69 -70 0
28 50 65 -71 0
28 50 -65 71 0
28 -50 65 71 0
28 -50 -65 -71 0
-28 50 65 71 0
-28 50 -65 -71 0
-28 -50 65 -71 0
-28 -50 -65 71 0
24 29 51 -68 0
24 29 -51 68 0
24 -29 51 68 0
24 -29 -51 -68 0
-24 29 51 68 0
-24 29 -51 -68 0
-24 -29 51 -68 0
-24 -29 -51 68 0
3 6 22 -72 0
3 6 -22 72 0
3 -6 22 72 0
3 -6 -22 -72 0
-3 6 22 72 0
-3 6 -22 -72 0
-3 -6 22 -72 0
-3 -6 -22 72 0
7 13 56 -73 0
7 13 -56 73 0
7 -13 56 73 0
7 -13 -56 -73 0
-7 13 56 73 0
-7 13 -56 -73 0
-7 -13 56 -73 0
-7 -13 -56 73 0
47 73 74 75 0
47 73 -74 -75 0
47 -73 74 -75 0
47 -73 -74 75 0
-47 73 74 -75 0
-47 73 -74 75 0
-47 -73 74 75 0
-47 -73 -74 -75 0
14 40 48 -74 0
14 40 -48 74 0
14 -40 48 74 0
14 -40 -48 -74 0
-14 40 48 74 0
-14 40 -48 -74 0
-14 -40 48 -74 0
-14 -40 -48 74 0
35 42 76 77 0
35 42 -76 -77 0
35 -42 76 -77 0
35 -42 -76 77 0
-35 42 76 -77 0
-35 42 -76 77 0
-35 -42 76 77 0
-35 -42 -76 -77 0
18 52 78 79 0
18 52 -78 -79 0
18 -52 78 -79 0
18 -52 -78 79 0
-18 52 78 -79 0
-18 52 -78 79 0
-18 -52 78 79 0
-18 -52 -78 -79 0
19 55 76 -78 0
19 55 -76 78 0
19 -55 76 78 0
19 -55 -76 -78 0
-19 55 76 78 0
-19 55 -76 -78 0
-19 -55 76 -78 0
-19 -55 -76 78 0
8 11 58 66 0
8 11 -58 -66 0
8 -11 58 -66 0
8 -11 -58 66 0
-8 11 58 -66 0
-8 11 -58 66 0
-8 -11 58 66 0
-8 -11 -58 -66 0
4 12 31 -59 0
4 12 -31 59 0
4 -12 31 59 0
4 -12 -31 -59 0
-4 12 31 59 0
-4 12 -31 -59 0
-4 -12 31 -59 0
-4 -12 -31 59 0
32 46 69 -80 0
32 46 -69 80 0
32 -46 69 80 0
32 -46 -69 -80 0
-32 46 69 80 0
-32 46 -69 -80 0
-32 -46 69 -80 0
-32 -46 -69 80 0
25 30 75 -77 0
25 30 -75 77 0
25 -30 75 77 0
25 -30 -75 -77 0
-25 30 75 77 0
-25 30 -75 -77 0
-25 -30 75 -77 0
-25 -30 -75 77 0
15 71 72 80 0
15 71 -72 -80 0
15 -71 72 -80 0
15 -71 -72 80 0
-15 71 72 -80 0
-15 71 -72 80 0
-15 -71 72 80 0
-15 -71 -72 -80 0
36 57 67 -70 0
36 57 -67 70 0
36 -57 67 70 0
36 -57 -67 -70 0
-36 57 67 70 0
-36 57 -67 -70 0
-36 -57 67 -70 0
-36 -57 -67 70 0
26 33 49 61 0
26 33 -49 -61 0
26 -33 49 -61 0
26 -33 -49 61 0
-26 33 49 -61 0
-26 33 -49 61 0
-26 -33 49 61 0
-26 -33 -49 -61 0
37 62 64 -79 0
37 62 -64 79 0
37 -62 64 79 0
37 -62 -64 -79 0
-37 62 64 79 0
-37 62 -64 -79 0
-37 -62 64 -79 0
-37 -62 -64 79 0
